8776
0 0 0 1 0 1 0 1 0 1 0 0 1 1 0 1 0 0 1 0 
5 5 5 5 5 5 5 5 7 7 7 7 7 7 7 7 7 12 13 13 12 13 12 13 12 15 9 9 9 9 9 9 9 15 18 18 18 18 18 18 18 18 18 18 5 5 7 12 12 15 15 3 7 18 5 15 3 3 3 7 18 9 15 13 3 13 9 18 7 5 9 18 7 3 3 15 3 7 7 13 18 7 13 15 15 3 3 5 15 3 15 15 9 15 15 18 3 7 3 5 
